10128.3,60.05,74.49
10301.14,59.04,73.24
10351.47,58.76,72.89
10162.27,59.85,74.24
10484.11,58.01,71.97
9809.99,62.0,76.91
10662.76,57.04,70.76
10038.72,60.59,75.16
11252.52,54.05,67.05
10353.16,58.75,72.88
10455.24,58.17,72.16
10496.23,57.95,71.88
11755.64,51.74,64.18
10262.99,59.26,73.52
11150.48,54.55,67.66
9993.18,60.86,75.5
11205.56,54.28,67.33
10144.65,59.95,74.37
9514.29,63.93,79.3
10261.28,59.27,73.53
